
        $ From http://www.csplib.org/Problems/prob009/data/helmut.pdf
        $ Problem number 29
        $ Sequence length : 24
        language ESSENCE' 1.0
        letting sizemaster be 203
        letting sizes be sequence(1,2,5,10,11,15,17,18,20,21,24,26,29,31,32,34,36,40,44,48,54,58,98,105)
        